; benchmark generated from python API
(set-info :status unknown)
(declare-fun cell_1_6 () Int)
(declare-fun cell_1_7 () Int)
(declare-fun cell_2_3 () Int)
(declare-fun cell_2_7 () Int)
(declare-fun cell_3_2 () Int)
(declare-fun cell_3_6 () Int)
(declare-fun cell_4_4 () Int)
(declare-fun cell_4_9 () Int)
(declare-fun cell_5_1 () Int)
(declare-fun cell_5_8 () Int)
(declare-fun cell_6_1 () Int)
(declare-fun cell_6_4 () Int)
(declare-fun cell_7_5 () Int)
(declare-fun cell_8_8 () Int)
(declare-fun cell_9_3 () Int)
(declare-fun cell_1_1 () Int)
(declare-fun cell_2_1 () Int)
(declare-fun cell_3_1 () Int)
(declare-fun cell_4_1 () Int)
(declare-fun cell_7_1 () Int)
(declare-fun cell_8_1 () Int)
(declare-fun cell_9_1 () Int)
(declare-fun cell_1_2 () Int)
(declare-fun cell_2_2 () Int)
(declare-fun cell_4_2 () Int)
(declare-fun cell_5_2 () Int)
(declare-fun cell_6_2 () Int)
(declare-fun cell_7_2 () Int)
(declare-fun cell_8_2 () Int)
(declare-fun cell_9_2 () Int)
(declare-fun cell_1_3 () Int)
(declare-fun cell_3_3 () Int)
(declare-fun cell_4_3 () Int)
(declare-fun cell_5_3 () Int)
(declare-fun cell_6_3 () Int)
(declare-fun cell_7_3 () Int)
(declare-fun cell_8_3 () Int)
(declare-fun cell_1_4 () Int)
(declare-fun cell_2_4 () Int)
(declare-fun cell_3_4 () Int)
(declare-fun cell_5_4 () Int)
(declare-fun cell_7_4 () Int)
(declare-fun cell_8_4 () Int)
(declare-fun cell_9_4 () Int)
(declare-fun cell_1_5 () Int)
(declare-fun cell_2_5 () Int)
(declare-fun cell_3_5 () Int)
(declare-fun cell_4_5 () Int)
(declare-fun cell_5_5 () Int)
(declare-fun cell_6_5 () Int)
(declare-fun cell_8_5 () Int)
(declare-fun cell_9_5 () Int)
(declare-fun cell_2_6 () Int)
(declare-fun cell_4_6 () Int)
(declare-fun cell_5_6 () Int)
(declare-fun cell_6_6 () Int)
(declare-fun cell_7_6 () Int)
(declare-fun cell_8_6 () Int)
(declare-fun cell_9_6 () Int)
(declare-fun cell_3_7 () Int)
(declare-fun cell_4_7 () Int)
(declare-fun cell_5_7 () Int)
(declare-fun cell_6_7 () Int)
(declare-fun cell_7_7 () Int)
(declare-fun cell_8_7 () Int)
(declare-fun cell_9_7 () Int)
(declare-fun cell_1_8 () Int)
(declare-fun cell_2_8 () Int)
(declare-fun cell_3_8 () Int)
(declare-fun cell_4_8 () Int)
(declare-fun cell_6_8 () Int)
(declare-fun cell_7_8 () Int)
(declare-fun cell_9_8 () Int)
(declare-fun cell_1_9 () Int)
(declare-fun cell_2_9 () Int)
(declare-fun cell_3_9 () Int)
(declare-fun cell_5_9 () Int)
(declare-fun cell_6_9 () Int)
(declare-fun cell_7_9 () Int)
(declare-fun cell_8_9 () Int)
(declare-fun cell_9_9 () Int)
(assert
 (= cell_1_6 1))
(assert
 (= cell_1_7 2))
(assert
 (= cell_2_3 2))
(assert
 (= cell_2_7 1))
(assert
 (= cell_3_2 1))
(assert
 (= cell_3_6 2))
(assert
 (= cell_4_4 2))
(assert
 (= cell_4_9 1))
(assert
 (= cell_5_1 1))
(assert
 (= cell_5_8 2))
(assert
 (= cell_6_1 2))
(assert
 (= cell_6_4 1))
(assert
 (= cell_7_5 1))
(assert
 (= cell_8_8 1))
(assert
 (= cell_9_3 1))
(assert
 (let (($x3062 (= cell_1_1 9)))
 (let (($x1871 (= cell_1_1 8)))
 (let (($x1587 (= cell_1_1 7)))
 (let (($x1772 (= cell_1_1 6)))
 (let (($x3190 (= cell_1_1 5)))
 (let (($x2069 (= cell_1_1 4)))
 (let (($x3153 (= cell_1_1 3)))
 (let (($x1889 (= cell_1_1 2)))
 (let (($x1991 (= cell_1_1 1)))
 (or $x1991 $x1889 $x3153 $x2069 $x3190 $x1772 $x1587 $x1871 $x3062)))))))))))
(assert
 (let (($x3401 (= cell_2_1 9)))
 (let (($x1503 (= cell_2_1 8)))
 (let (($x3567 (= cell_2_1 7)))
 (let (($x1645 (= cell_2_1 6)))
 (let (($x7796 (= cell_2_1 5)))
 (let (($x6859 (= cell_2_1 4)))
 (let (($x3354 (= cell_2_1 3)))
 (let (($x3523 (= cell_2_1 2)))
 (let (($x1613 (= cell_2_1 1)))
 (or $x1613 $x3523 $x3354 $x6859 $x7796 $x1645 $x3567 $x1503 $x3401)))))))))))
(assert
 (let (($x542 (= cell_3_1 9)))
 (let (($x3517 (= cell_3_1 8)))
 (let (($x235 (= cell_3_1 7)))
 (let (($x930 (= cell_3_1 6)))
 (let (($x660 (= cell_3_1 5)))
 (let (($x145 (= cell_3_1 4)))
 (let (($x3533 (= cell_3_1 3)))
 (let (($x1118 (= cell_3_1 2)))
 (let (($x2849 (= cell_3_1 1)))
 (or $x2849 $x1118 $x3533 $x145 $x660 $x930 $x235 $x3517 $x542)))))))))))
(assert
 (let (($x3534 (= cell_4_1 9)))
 (let (($x955 (= cell_4_1 8)))
 (let (($x95 (= cell_4_1 7)))
 (let (($x7432 (= cell_4_1 6)))
 (let (($x938 (= cell_4_1 5)))
 (let (($x7314 (= cell_4_1 4)))
 (let (($x3115 (= cell_4_1 3)))
 (let (($x992 (= cell_4_1 2)))
 (let (($x7092 (= cell_4_1 1)))
 (or $x7092 $x992 $x3115 $x7314 $x938 $x7432 $x95 $x955 $x3534)))))))))))
(assert
 (let (($x1987 (= cell_5_1 1)))
 (or $x1987 (= cell_5_1 2) (= cell_5_1 3) (= cell_5_1 4) (= cell_5_1 5) (= cell_5_1 6) (= cell_5_1 7) (= cell_5_1 8) (= cell_5_1 9))))
(assert
 (let (($x1803 (= cell_6_1 2)))
 (or (= cell_6_1 1) $x1803 (= cell_6_1 3) (= cell_6_1 4) (= cell_6_1 5) (= cell_6_1 6) (= cell_6_1 7) (= cell_6_1 8) (= cell_6_1 9))))
(assert
 (let (($x763 (= cell_7_1 9)))
 (let (($x904 (= cell_7_1 8)))
 (let (($x2471 (= cell_7_1 7)))
 (let (($x7643 (= cell_7_1 6)))
 (let (($x2157 (= cell_7_1 5)))
 (let (($x7756 (= cell_7_1 4)))
 (let (($x828 (= cell_7_1 3)))
 (let (($x612 (= cell_7_1 2)))
 (let (($x2047 (= cell_7_1 1)))
 (or $x2047 $x612 $x828 $x7756 $x2157 $x7643 $x2471 $x904 $x763)))))))))))
(assert
 (let (($x1348 (= cell_8_1 9)))
 (let (($x2276 (= cell_8_1 8)))
 (let (($x1030 (= cell_8_1 7)))
 (let (($x3235 (= cell_8_1 6)))
 (let (($x2876 (= cell_8_1 5)))
 (let (($x661 (= cell_8_1 4)))
 (let (($x347 (= cell_8_1 3)))
 (let (($x3862 (= cell_8_1 2)))
 (let (($x1748 (= cell_8_1 1)))
 (or $x1748 $x3862 $x347 $x661 $x2876 $x3235 $x1030 $x2276 $x1348)))))))))))
(assert
 (let (($x2377 (= cell_9_1 9)))
 (let (($x7651 (= cell_9_1 8)))
 (let (($x884 (= cell_9_1 7)))
 (let (($x6841 (= cell_9_1 6)))
 (let (($x2059 (= cell_9_1 5)))
 (let (($x7800 (= cell_9_1 4)))
 (let (($x587 (= cell_9_1 3)))
 (let (($x1364 (= cell_9_1 2)))
 (let (($x4180 (= cell_9_1 1)))
 (or $x4180 $x1364 $x587 $x7800 $x2059 $x6841 $x884 $x7651 $x2377)))))))))))
(assert
 (let (($x49 (= cell_1_2 9)))
 (let (($x1443 (= cell_1_2 8)))
 (let (($x3157 (= cell_1_2 7)))
 (let (($x703 (= cell_1_2 6)))
 (let (($x1851 (= cell_1_2 5)))
 (let (($x2057 (= cell_1_2 4)))
 (let (($x1841 (= cell_1_2 3)))
 (let (($x44 (= cell_1_2 2)))
 (let (($x7681 (= cell_1_2 1)))
 (or $x7681 $x44 $x1841 $x2057 $x1851 $x703 $x3157 $x1443 $x49)))))))))))
(assert
 (let (($x2350 (= cell_2_2 9)))
 (let (($x978 (= cell_2_2 8)))
 (let (($x3694 (= cell_2_2 7)))
 (let (($x1965 (= cell_2_2 6)))
 (let (($x2842 (= cell_2_2 5)))
 (let (($x3799 (= cell_2_2 4)))
 (let (($x3176 (= cell_2_2 3)))
 (let (($x500 (= cell_2_2 2)))
 (let (($x399 (= cell_2_2 1)))
 (or $x399 $x500 $x3176 $x3799 $x2842 $x1965 $x3694 $x978 $x2350)))))))))))
(assert
 (let (($x7063 (= cell_3_2 1)))
 (or $x7063 (= cell_3_2 2) (= cell_3_2 3) (= cell_3_2 4) (= cell_3_2 5) (= cell_3_2 6) (= cell_3_2 7) (= cell_3_2 8) (= cell_3_2 9))))
(assert
 (let (($x1240 (= cell_4_2 9)))
 (let (($x427 (= cell_4_2 8)))
 (let (($x933 (= cell_4_2 7)))
 (let (($x2574 (= cell_4_2 6)))
 (let (($x218 (= cell_4_2 5)))
 (let (($x2479 (= cell_4_2 4)))
 (let (($x37 (= cell_4_2 3)))
 (let (($x3331 (= cell_4_2 2)))
 (let (($x336 (= cell_4_2 1)))
 (or $x336 $x3331 $x37 $x2479 $x218 $x2574 $x933 $x427 $x1240)))))))))))
(assert
 (let (($x7866 (= cell_5_2 9)))
 (let (($x553 (= cell_5_2 8)))
 (let (($x2086 (= cell_5_2 7)))
 (let (($x7982 (= cell_5_2 6)))
 (let (($x1977 (= cell_5_2 5)))
 (let (($x7145 (= cell_5_2 4)))
 (let (($x2928 (= cell_5_2 3)))
 (let (($x2013 (= cell_5_2 2)))
 (let (($x1864 (= cell_5_2 1)))
 (or $x1864 $x2013 $x2928 $x7145 $x1977 $x7982 $x2086 $x553 $x7866)))))))))))
(assert
 (let (($x801 (= cell_6_2 9)))
 (let (($x2907 (= cell_6_2 8)))
 (let (($x1250 (= cell_6_2 7)))
 (let (($x7411 (= cell_6_2 6)))
 (let (($x8025 (= cell_6_2 5)))
 (let (($x7753 (= cell_6_2 4)))
 (let (($x1895 (= cell_6_2 3)))
 (let (($x1223 (= cell_6_2 2)))
 (let (($x168 (= cell_6_2 1)))
 (or $x168 $x1223 $x1895 $x7753 $x8025 $x7411 $x1250 $x2907 $x801)))))))))))
(assert
 (let (($x3093 (= cell_7_2 9)))
 (let (($x3279 (= cell_7_2 8)))
 (let (($x2091 (= cell_7_2 7)))
 (let (($x21 (= cell_7_2 6)))
 (let (($x2878 (= cell_7_2 5)))
 (let (($x3728 (= cell_7_2 4)))
 (let (($x2608 (= cell_7_2 3)))
 (let (($x3429 (= cell_7_2 2)))
 (let (($x1527 (= cell_7_2 1)))
 (or $x1527 $x3429 $x2608 $x3728 $x2878 $x21 $x2091 $x3279 $x3093)))))))))))
(assert
 (let (($x2786 (= cell_8_2 9)))
 (let (($x2045 (= cell_8_2 8)))
 (let (($x373 (= cell_8_2 7)))
 (let (($x871 (= cell_8_2 6)))
 (let (($x2689 (= cell_8_2 5)))
 (let (($x313 (= cell_8_2 4)))
 (let (($x2823 (= cell_8_2 3)))
 (let (($x3827 (= cell_8_2 2)))
 (let (($x40 (= cell_8_2 1)))
 (or $x40 $x3827 $x2823 $x313 $x2689 $x871 $x373 $x2045 $x2786)))))))))))
(assert
 (let (($x1095 (= cell_9_2 9)))
 (let (($x2620 (= cell_9_2 8)))
 (let (($x1282 (= cell_9_2 7)))
 (let (($x7512 (= cell_9_2 6)))
 (let (($x2936 (= cell_9_2 5)))
 (let (($x3809 (= cell_9_2 4)))
 (let (($x3510 (= cell_9_2 3)))
 (let (($x3052 (= cell_9_2 2)))
 (let (($x3181 (= cell_9_2 1)))
 (or $x3181 $x3052 $x3510 $x3809 $x2936 $x7512 $x1282 $x2620 $x1095)))))))))))
(assert
 (let (($x3672 (= cell_1_3 9)))
 (let (($x8028 (= cell_1_3 8)))
 (let (($x2168 (= cell_1_3 7)))
 (let (($x164 (= cell_1_3 6)))
 (let (($x572 (= cell_1_3 5)))
 (let (($x2545 (= cell_1_3 4)))
 (let (($x3485 (= cell_1_3 3)))
 (let (($x2937 (= cell_1_3 2)))
 (let (($x3786 (= cell_1_3 1)))
 (or $x3786 $x2937 $x3485 $x2545 $x572 $x164 $x2168 $x8028 $x3672)))))))))))
(assert
 (let (($x563 (= cell_2_3 2)))
 (or (= cell_2_3 1) $x563 (= cell_2_3 3) (= cell_2_3 4) (= cell_2_3 5) (= cell_2_3 6) (= cell_2_3 7) (= cell_2_3 8) (= cell_2_3 9))))
(assert
 (let (($x3588 (= cell_3_3 9)))
 (let (($x2153 (= cell_3_3 8)))
 (let (($x1536 (= cell_3_3 7)))
 (let (($x3716 (= cell_3_3 6)))
 (let (($x3275 (= cell_3_3 5)))
 (let (($x3469 (= cell_3_3 4)))
 (let (($x1923 (= cell_3_3 3)))
 (let (($x324 (= cell_3_3 2)))
 (let (($x1845 (= cell_3_3 1)))
 (or $x1845 $x324 $x1923 $x3469 $x3275 $x3716 $x1536 $x2153 $x3588)))))))))))
(assert
 (let (($x1806 (= cell_4_3 9)))
 (let (($x3076 (= cell_4_3 8)))
 (let (($x1347 (= cell_4_3 7)))
 (let (($x7993 (= cell_4_3 6)))
 (let (($x1703 (= cell_4_3 5)))
 (let (($x3462 (= cell_4_3 4)))
 (let (($x432 (= cell_4_3 3)))
 (let (($x1471 (= cell_4_3 2)))
 (let (($x3902 (= cell_4_3 1)))
 (or $x3902 $x1471 $x432 $x3462 $x1703 $x7993 $x1347 $x3076 $x1806)))))))))))
(assert
 (let (($x574 (= cell_5_3 9)))
 (let (($x4203 (= cell_5_3 8)))
 (let (($x2781 (= cell_5_3 7)))
 (let (($x522 (= cell_5_3 6)))
 (let (($x451 (= cell_5_3 5)))
 (let (($x2173 (= cell_5_3 4)))
 (let (($x2760 (= cell_5_3 3)))
 (let (($x1712 (= cell_5_3 2)))
 (let (($x1596 (= cell_5_3 1)))
 (or $x1596 $x1712 $x2760 $x2173 $x451 $x522 $x2781 $x4203 $x574)))))))))))
(assert
 (let (($x2098 (= cell_6_3 9)))
 (let (($x3077 (= cell_6_3 8)))
 (let (($x3402 (= cell_6_3 7)))
 (let (($x2961 (= cell_6_3 6)))
 (let (($x7752 (= cell_6_3 5)))
 (let (($x623 (= cell_6_3 4)))
 (let (($x1903 (= cell_6_3 3)))
 (let (($x7489 (= cell_6_3 2)))
 (let (($x1997 (= cell_6_3 1)))
 (or $x1997 $x7489 $x1903 $x623 $x7752 $x2961 $x3402 $x3077 $x2098)))))))))))
(assert
 (let (($x7235 (= cell_7_3 9)))
 (let (($x1718 (= cell_7_3 8)))
 (let (($x1742 (= cell_7_3 7)))
 (let (($x1911 (= cell_7_3 6)))
 (let (($x2613 (= cell_7_3 5)))
 (let (($x133 (= cell_7_3 4)))
 (let (($x2960 (= cell_7_3 3)))
 (let (($x7315 (= cell_7_3 2)))
 (let (($x1707 (= cell_7_3 1)))
 (or $x1707 $x7315 $x2960 $x133 $x2613 $x1911 $x1742 $x1718 $x7235)))))))))))
(assert
 (let (($x4076 (= cell_8_3 9)))
 (let (($x2968 (= cell_8_3 8)))
 (let (($x415 (= cell_8_3 7)))
 (let (($x3147 (= cell_8_3 6)))
 (let (($x1096 (= cell_8_3 5)))
 (let (($x2144 (= cell_8_3 4)))
 (let (($x1450 (= cell_8_3 3)))
 (let (($x3702 (= cell_8_3 2)))
 (let (($x196 (= cell_8_3 1)))
 (or $x196 $x3702 $x1450 $x2144 $x1096 $x3147 $x415 $x2968 $x4076)))))))))))
(assert
 (let (($x1523 (= cell_9_3 1)))
 (or $x1523 (= cell_9_3 2) (= cell_9_3 3) (= cell_9_3 4) (= cell_9_3 5) (= cell_9_3 6) (= cell_9_3 7) (= cell_9_3 8) (= cell_9_3 9))))
(assert
 (let (($x2528 (= cell_1_4 9)))
 (let (($x1203 (= cell_1_4 8)))
 (let (($x3590 (= cell_1_4 7)))
 (let (($x2841 (= cell_1_4 6)))
 (let (($x1145 (= cell_1_4 5)))
 (let (($x1040 (= cell_1_4 4)))
 (let (($x2274 (= cell_1_4 3)))
 (let (($x236 (= cell_1_4 2)))
 (let (($x1063 (= cell_1_4 1)))
 (or $x1063 $x236 $x2274 $x1040 $x1145 $x2841 $x3590 $x1203 $x2528)))))))))))
(assert
 (let (($x3246 (= cell_2_4 9)))
 (let (($x3499 (= cell_2_4 8)))
 (let (($x4211 (= cell_2_4 7)))
 (let (($x3080 (= cell_2_4 6)))
 (let (($x2957 (= cell_2_4 5)))
 (let (($x1985 (= cell_2_4 4)))
 (let (($x316 (= cell_2_4 3)))
 (let (($x91 (= cell_2_4 2)))
 (let (($x2296 (= cell_2_4 1)))
 (or $x2296 $x91 $x316 $x1985 $x2957 $x3080 $x4211 $x3499 $x3246)))))))))))
(assert
 (let (($x101 (= cell_3_4 9)))
 (let (($x42 (= cell_3_4 8)))
 (let (($x4243 (= cell_3_4 7)))
 (let (($x2512 (= cell_3_4 6)))
 (let (($x358 (= cell_3_4 5)))
 (let (($x456 (= cell_3_4 4)))
 (let (($x2172 (= cell_3_4 3)))
 (let (($x2161 (= cell_3_4 2)))
 (let (($x191 (= cell_3_4 1)))
 (or $x191 $x2161 $x2172 $x456 $x358 $x2512 $x4243 $x42 $x101)))))))))))
(assert
 (let (($x774 (= cell_4_4 2)))
 (or (= cell_4_4 1) $x774 (= cell_4_4 3) (= cell_4_4 4) (= cell_4_4 5) (= cell_4_4 6) (= cell_4_4 7) (= cell_4_4 8) (= cell_4_4 9))))
(assert
 (let (($x2626 (= cell_5_4 9)))
 (let (($x3251 (= cell_5_4 8)))
 (let (($x762 (= cell_5_4 7)))
 (let (($x201 (= cell_5_4 6)))
 (let (($x3940 (= cell_5_4 5)))
 (let (($x4018 (= cell_5_4 4)))
 (let (($x2357 (= cell_5_4 3)))
 (let (($x1327 (= cell_5_4 2)))
 (let (($x6581 (= cell_5_4 1)))
 (or $x6581 $x1327 $x2357 $x4018 $x3940 $x201 $x762 $x3251 $x2626)))))))))))
(assert
 (let (($x2955 (= cell_6_4 1)))
 (or $x2955 (= cell_6_4 2) (= cell_6_4 3) (= cell_6_4 4) (= cell_6_4 5) (= cell_6_4 6) (= cell_6_4 7) (= cell_6_4 8) (= cell_6_4 9))))
(assert
 (let (($x548 (= cell_7_4 9)))
 (let (($x3521 (= cell_7_4 8)))
 (let (($x4152 (= cell_7_4 7)))
 (let (($x3210 (= cell_7_4 6)))
 (let (($x3311 (= cell_7_4 5)))
 (let (($x2070 (= cell_7_4 4)))
 (let (($x1724 (= cell_7_4 3)))
 (let (($x1804 (= cell_7_4 2)))
 (let (($x835 (= cell_7_4 1)))
 (or $x835 $x1804 $x1724 $x2070 $x3311 $x3210 $x4152 $x3521 $x548)))))))))))
(assert
 (let (($x2335 (= cell_8_4 9)))
 (let (($x343 (= cell_8_4 8)))
 (let (($x2155 (= cell_8_4 7)))
 (let (($x3221 (= cell_8_4 6)))
 (let (($x1833 (= cell_8_4 5)))
 (let (($x6810 (= cell_8_4 4)))
 (let (($x561 (= cell_8_4 3)))
 (let (($x1358 (= cell_8_4 2)))
 (let (($x799 (= cell_8_4 1)))
 (or $x799 $x1358 $x561 $x6810 $x1833 $x3221 $x2155 $x343 $x2335)))))))))))
(assert
 (let (($x6981 (= cell_9_4 2)))
 (let (($x3608 (= cell_9_4 1)))
 (or $x3608 $x6981 (= cell_9_4 3) (= cell_9_4 4) (= cell_9_4 5) (= cell_9_4 6) (= cell_9_4 7) (= cell_9_4 8) (= cell_9_4 9)))))
(assert
 (let (($x4153 (= cell_1_5 9)))
 (let (($x1591 (= cell_1_5 8)))
 (let (($x4007 (= cell_1_5 7)))
 (let (($x862 (= cell_1_5 6)))
 (let (($x939 (= cell_1_5 5)))
 (let (($x2701 (= cell_1_5 4)))
 (let (($x3390 (= cell_1_5 3)))
 (let (($x3270 (= cell_1_5 2)))
 (let (($x926 (= cell_1_5 1)))
 (or $x926 $x3270 $x3390 $x2701 $x939 $x862 $x4007 $x1591 $x4153)))))))))))
(assert
 (let (($x167 (= cell_2_5 9)))
 (let (($x3022 (= cell_2_5 8)))
 (let (($x2239 (= cell_2_5 7)))
 (let (($x24 (= cell_2_5 6)))
 (let (($x2514 (= cell_2_5 5)))
 (let (($x2930 (= cell_2_5 4)))
 (let (($x613 (= cell_2_5 3)))
 (let (($x2008 (= cell_2_5 2)))
 (let (($x1018 (= cell_2_5 1)))
 (or $x1018 $x2008 $x613 $x2930 $x2514 $x24 $x2239 $x3022 $x167)))))))))))
(assert
 (let (($x67 (= cell_3_5 9)))
 (let (($x3083 (= cell_3_5 8)))
 (let (($x1500 (= cell_3_5 7)))
 (let (($x192 (= cell_3_5 6)))
 (let (($x3376 (= cell_3_5 5)))
 (let (($x2344 (= cell_3_5 4)))
 (let (($x4239 (= cell_3_5 3)))
 (let (($x455 (= cell_3_5 2)))
 (let (($x1821 (= cell_3_5 1)))
 (or $x1821 $x455 $x4239 $x2344 $x3376 $x192 $x1500 $x3083 $x67)))))))))))
(assert
 (let (($x815 (= cell_4_5 9)))
 (let (($x2773 (= cell_4_5 8)))
 (let (($x3654 (= cell_4_5 7)))
 (let (($x916 (= cell_4_5 6)))
 (let (($x8016 (= cell_4_5 5)))
 (let (($x3528 (= cell_4_5 4)))
 (let (($x2329 (= cell_4_5 3)))
 (let (($x2952 (= cell_4_5 2)))
 (let (($x989 (= cell_4_5 1)))
 (or $x989 $x2952 $x2329 $x3528 $x8016 $x916 $x3654 $x2773 $x815)))))))))))
(assert
 (let (($x3996 (= cell_5_5 9)))
 (let (($x1968 (= cell_5_5 8)))
 (let (($x3197 (= cell_5_5 7)))
 (let (($x2998 (= cell_5_5 6)))
 (let (($x1815 (= cell_5_5 5)))
 (let (($x1905 (= cell_5_5 4)))
 (let (($x2340 (= cell_5_5 3)))
 (let (($x2746 (= cell_5_5 2)))
 (let (($x3399 (= cell_5_5 1)))
 (or $x3399 $x2746 $x2340 $x1905 $x1815 $x2998 $x3197 $x1968 $x3996)))))))))))
(assert
 (let (($x2801 (= cell_6_5 9)))
 (let (($x2004 (= cell_6_5 8)))
 (let (($x911 (= cell_6_5 7)))
 (let (($x3448 (= cell_6_5 6)))
 (let (($x4020 (= cell_6_5 5)))
 (let (($x1848 (= cell_6_5 4)))
 (let (($x2892 (= cell_6_5 3)))
 (let (($x32 (= cell_6_5 2)))
 (let (($x917 (= cell_6_5 1)))
 (or $x917 $x32 $x2892 $x1848 $x4020 $x3448 $x911 $x2004 $x2801)))))))))))
(assert
 (let (($x6793 (= cell_7_5 1)))
 (or $x6793 (= cell_7_5 2) (= cell_7_5 3) (= cell_7_5 4) (= cell_7_5 5) (= cell_7_5 6) (= cell_7_5 7) (= cell_7_5 8) (= cell_7_5 9))))
(assert
 (let (($x3048 (= cell_8_5 9)))
 (let (($x1584 (= cell_8_5 8)))
 (let (($x3481 (= cell_8_5 7)))
 (let (($x8026 (= cell_8_5 6)))
 (let (($x7977 (= cell_8_5 5)))
 (let (($x7330 (= cell_8_5 4)))
 (let (($x2126 (= cell_8_5 3)))
 (let (($x6766 (= cell_8_5 2)))
 (let (($x406 (= cell_8_5 1)))
 (or $x406 $x6766 $x2126 $x7330 $x7977 $x8026 $x3481 $x1584 $x3048)))))))))))
(assert
 (let (($x632 (= cell_9_5 1)))
 (or $x632 (= cell_9_5 2) (= cell_9_5 3) (= cell_9_5 4) (= cell_9_5 5) (= cell_9_5 6) (= cell_9_5 7) (= cell_9_5 8) (= cell_9_5 9))))
(assert
 (let (($x1233 (= cell_1_6 1)))
 (or $x1233 (= cell_1_6 2) (= cell_1_6 3) (= cell_1_6 4) (= cell_1_6 5) (= cell_1_6 6) (= cell_1_6 7) (= cell_1_6 8) (= cell_1_6 9))))
(assert
 (let (($x1357 (= cell_2_6 9)))
 (let (($x775 (= cell_2_6 8)))
 (let (($x2298 (= cell_2_6 7)))
 (let (($x3291 (= cell_2_6 6)))
 (let (($x3993 (= cell_2_6 5)))
 (let (($x7814 (= cell_2_6 4)))
 (let (($x1530 (= cell_2_6 3)))
 (let (($x2183 (= cell_2_6 2)))
 (let (($x2294 (= cell_2_6 1)))
 (or $x2294 $x2183 $x1530 $x7814 $x3993 $x3291 $x2298 $x775 $x1357)))))))))))
(assert
 (let (($x2508 (= cell_3_6 2)))
 (or (= cell_3_6 1) $x2508 (= cell_3_6 3) (= cell_3_6 4) (= cell_3_6 5) (= cell_3_6 6) (= cell_3_6 7) (= cell_3_6 8) (= cell_3_6 9))))
(assert
 (let (($x2326 (= cell_4_6 9)))
 (let (($x116 (= cell_4_6 8)))
 (let (($x454 (= cell_4_6 7)))
 (let (($x1412 (= cell_4_6 6)))
 (let (($x1124 (= cell_4_6 5)))
 (let (($x1644 (= cell_4_6 4)))
 (let (($x1938 (= cell_4_6 3)))
 (let (($x3355 (= cell_4_6 2)))
 (let (($x1728 (= cell_4_6 1)))
 (or $x1728 $x3355 $x1938 $x1644 $x1124 $x1412 $x454 $x116 $x2326)))))))))))
(assert
 (let (($x7350 (= cell_5_6 9)))
 (let (($x2066 (= cell_5_6 8)))
 (let (($x912 (= cell_5_6 7)))
 (let (($x78 (= cell_5_6 6)))
 (let (($x956 (= cell_5_6 5)))
 (let (($x1257 (= cell_5_6 4)))
 (let (($x1849 (= cell_5_6 3)))
 (let (($x1428 (= cell_5_6 2)))
 (let (($x340 (= cell_5_6 1)))
 (or $x340 $x1428 $x1849 $x1257 $x956 $x78 $x912 $x2066 $x7350)))))))))))
(assert
 (let (($x2506 (= cell_6_6 2)))
 (let (($x3709 (= cell_6_6 1)))
 (or $x3709 $x2506 (= cell_6_6 3) (= cell_6_6 4) (= cell_6_6 5) (= cell_6_6 6) (= cell_6_6 7) (= cell_6_6 8) (= cell_6_6 9)))))
(assert
 (let (($x761 (= cell_7_6 2)))
 (let (($x3274 (= cell_7_6 1)))
 (or $x3274 $x761 (= cell_7_6 3) (= cell_7_6 4) (= cell_7_6 5) (= cell_7_6 6) (= cell_7_6 7) (= cell_7_6 8) (= cell_7_6 9)))))
(assert
 (let (($x1332 (= cell_8_6 9)))
 (let (($x644 (= cell_8_6 8)))
 (let (($x3391 (= cell_8_6 7)))
 (let (($x162 (= cell_8_6 6)))
 (let (($x3696 (= cell_8_6 5)))
 (let (($x1840 (= cell_8_6 4)))
 (let (($x6820 (= cell_8_6 3)))
 (let (($x6838 (= cell_8_6 2)))
 (let (($x1692 (= cell_8_6 1)))
 (or $x1692 $x6838 $x6820 $x1840 $x3696 $x162 $x3391 $x644 $x1332)))))))))))
(assert
 (let (($x586 (= cell_9_6 2)))
 (let (($x4133 (= cell_9_6 1)))
 (or $x4133 $x586 (= cell_9_6 3) (= cell_9_6 4) (= cell_9_6 5) (= cell_9_6 6) (= cell_9_6 7) (= cell_9_6 8) (= cell_9_6 9)))))
(assert
 (let (($x30 (= cell_1_7 2)))
 (or (= cell_1_7 1) $x30 (= cell_1_7 3) (= cell_1_7 4) (= cell_1_7 5) (= cell_1_7 6) (= cell_1_7 7) (= cell_1_7 8) (= cell_1_7 9))))
(assert
 (let (($x2467 (= cell_2_7 1)))
 (or $x2467 (= cell_2_7 2) (= cell_2_7 3) (= cell_2_7 4) (= cell_2_7 5) (= cell_2_7 6) (= cell_2_7 7) (= cell_2_7 8) (= cell_2_7 9))))
(assert
 (let (($x2459 (= cell_3_7 2)))
 (let (($x242 (= cell_3_7 1)))
 (or $x242 $x2459 (= cell_3_7 3) (= cell_3_7 4) (= cell_3_7 5) (= cell_3_7 6) (= cell_3_7 7) (= cell_3_7 8) (= cell_3_7 9)))))
(assert
 (let (($x7605 (= cell_4_7 9)))
 (let (($x1967 (= cell_4_7 8)))
 (let (($x4029 (= cell_4_7 7)))
 (let (($x2082 (= cell_4_7 6)))
 (let (($x3460 (= cell_4_7 5)))
 (let (($x2266 (= cell_4_7 4)))
 (let (($x2730 (= cell_4_7 3)))
 (let (($x4179 (= cell_4_7 2)))
 (let (($x3014 (= cell_4_7 1)))
 (or $x3014 $x4179 $x2730 $x2266 $x3460 $x2082 $x4029 $x1967 $x7605)))))))))))
(assert
 (let (($x3954 (= cell_5_7 9)))
 (let (($x249 (= cell_5_7 8)))
 (let (($x7508 (= cell_5_7 7)))
 (let (($x6753 (= cell_5_7 6)))
 (let (($x2662 (= cell_5_7 5)))
 (let (($x2881 (= cell_5_7 4)))
 (let (($x1042 (= cell_5_7 3)))
 (let (($x664 (= cell_5_7 2)))
 (let (($x1487 (= cell_5_7 1)))
 (or $x1487 $x664 $x1042 $x2881 $x2662 $x6753 $x7508 $x249 $x3954)))))))))))
(assert
 (let (($x598 (= cell_6_7 2)))
 (let (($x3906 (= cell_6_7 1)))
 (or $x3906 $x598 (= cell_6_7 3) (= cell_6_7 4) (= cell_6_7 5) (= cell_6_7 6) (= cell_6_7 7) (= cell_6_7 8) (= cell_6_7 9)))))
(assert
 (let (($x2661 (= cell_7_7 9)))
 (let (($x1656 (= cell_7_7 8)))
 (let (($x2754 (= cell_7_7 7)))
 (let (($x2821 (= cell_7_7 6)))
 (let (($x1041 (= cell_7_7 5)))
 (let (($x231 (= cell_7_7 4)))
 (let (($x2279 (= cell_7_7 3)))
 (let (($x2417 (= cell_7_7 2)))
 (let (($x2053 (= cell_7_7 1)))
 (or $x2053 $x2417 $x2279 $x231 $x1041 $x2821 $x2754 $x1656 $x2661)))))))))))
(assert
 (let (($x1451 (= cell_8_7 9)))
 (let (($x1333 (= cell_8_7 8)))
 (let (($x2884 (= cell_8_7 7)))
 (let (($x3367 (= cell_8_7 6)))
 (let (($x165 (= cell_8_7 5)))
 (let (($x4198 (= cell_8_7 4)))
 (let (($x2927 (= cell_8_7 3)))
 (let (($x1626 (= cell_8_7 2)))
 (let (($x2895 (= cell_8_7 1)))
 (or $x2895 $x1626 $x2927 $x4198 $x165 $x3367 $x2884 $x1333 $x1451)))))))))))
(assert
 (let (($x7674 (= cell_9_7 2)))
 (let (($x1478 (= cell_9_7 1)))
 (or $x1478 $x7674 (= cell_9_7 3) (= cell_9_7 4) (= cell_9_7 5) (= cell_9_7 6) (= cell_9_7 7) (= cell_9_7 8) (= cell_9_7 9)))))
(assert
 (let (($x2142 (= cell_1_8 9)))
 (let (($x3848 (= cell_1_8 8)))
 (let (($x1535 (= cell_1_8 7)))
 (let (($x1171 (= cell_1_8 6)))
 (let (($x3989 (= cell_1_8 5)))
 (let (($x2372 (= cell_1_8 4)))
 (let (($x6813 (= cell_1_8 3)))
 (let (($x8017 (= cell_1_8 2)))
 (let (($x7629 (= cell_1_8 1)))
 (or $x7629 $x8017 $x6813 $x2372 $x3989 $x1171 $x1535 $x3848 $x2142)))))))))))
(assert
 (let (($x1758 (= cell_2_8 9)))
 (let (($x3930 (= cell_2_8 8)))
 (let (($x1141 (= cell_2_8 7)))
 (let (($x6961 (= cell_2_8 6)))
 (let (($x1634 (= cell_2_8 5)))
 (let (($x3820 (= cell_2_8 4)))
 (let (($x7527 (= cell_2_8 3)))
 (let (($x240 (= cell_2_8 2)))
 (let (($x2365 (= cell_2_8 1)))
 (or $x2365 $x240 $x7527 $x3820 $x1634 $x6961 $x1141 $x3930 $x1758)))))))))))
(assert
 (let (($x2811 (= cell_3_8 9)))
 (let (($x155 (= cell_3_8 8)))
 (let (($x7332 (= cell_3_8 7)))
 (let (($x3649 (= cell_3_8 6)))
 (let (($x2509 (= cell_3_8 5)))
 (let (($x7454 (= cell_3_8 4)))
 (let (($x1401 (= cell_3_8 3)))
 (let (($x1947 (= cell_3_8 2)))
 (let (($x6809 (= cell_3_8 1)))
 (or $x6809 $x1947 $x1401 $x7454 $x2509 $x3649 $x7332 $x155 $x2811)))))))))))
(assert
 (let (($x1972 (= cell_4_8 9)))
 (let (($x650 (= cell_4_8 8)))
 (let (($x673 (= cell_4_8 7)))
 (let (($x1729 (= cell_4_8 6)))
 (let (($x2693 (= cell_4_8 5)))
 (let (($x2769 (= cell_4_8 4)))
 (let (($x1349 (= cell_4_8 3)))
 (let (($x4151 (= cell_4_8 2)))
 (let (($x920 (= cell_4_8 1)))
 (or $x920 $x4151 $x1349 $x2769 $x2693 $x1729 $x673 $x650 $x1972)))))))))))
(assert
 (let (($x3081 (= cell_5_8 2)))
 (or (= cell_5_8 1) $x3081 (= cell_5_8 3) (= cell_5_8 4) (= cell_5_8 5) (= cell_5_8 6) (= cell_5_8 7) (= cell_5_8 8) (= cell_5_8 9))))
(assert
 (let (($x754 (= cell_6_8 9)))
 (let (($x1173 (= cell_6_8 8)))
 (let (($x1029 (= cell_6_8 7)))
 (let (($x1533 (= cell_6_8 6)))
 (let (($x7808 (= cell_6_8 5)))
 (let (($x176 (= cell_6_8 4)))
 (let (($x1319 (= cell_6_8 3)))
 (let (($x6616 (= cell_6_8 2)))
 (let (($x7659 (= cell_6_8 1)))
 (or $x7659 $x6616 $x1319 $x176 $x7808 $x1533 $x1029 $x1173 $x754)))))))))))
(assert
 (let (($x979 (= cell_7_8 9)))
 (let (($x7884 (= cell_7_8 8)))
 (let (($x1713 (= cell_7_8 7)))
 (let (($x7858 (= cell_7_8 6)))
 (let (($x2677 (= cell_7_8 5)))
 (let (($x7809 (= cell_7_8 4)))
 (let (($x1525 (= cell_7_8 3)))
 (let (($x3336 (= cell_7_8 2)))
 (let (($x1020 (= cell_7_8 1)))
 (or $x1020 $x3336 $x1525 $x7809 $x2677 $x7858 $x1713 $x7884 $x979)))))))))))
(assert
 (let (($x3887 (= cell_8_8 1)))
 (or $x3887 (= cell_8_8 2) (= cell_8_8 3) (= cell_8_8 4) (= cell_8_8 5) (= cell_8_8 6) (= cell_8_8 7) (= cell_8_8 8) (= cell_8_8 9))))
(assert
 (let (($x3095 (= cell_9_8 2)))
 (let (($x1862 (= cell_9_8 1)))
 (or $x1862 $x3095 (= cell_9_8 3) (= cell_9_8 4) (= cell_9_8 5) (= cell_9_8 6) (= cell_9_8 7) (= cell_9_8 8) (= cell_9_8 9)))))
(assert
 (let (($x3504 (= cell_1_9 9)))
 (let (($x2779 (= cell_1_9 8)))
 (let (($x3348 (= cell_1_9 7)))
 (let (($x1710 (= cell_1_9 6)))
 (let (($x2478 (= cell_1_9 5)))
 (let (($x807 (= cell_1_9 4)))
 (let (($x1917 (= cell_1_9 3)))
 (let (($x1143 (= cell_1_9 2)))
 (let (($x3860 (= cell_1_9 1)))
 (or $x3860 $x1143 $x1917 $x807 $x2478 $x1710 $x3348 $x2779 $x3504)))))))))))
(assert
 (let (($x3818 (= cell_2_9 9)))
 (let (($x2318 (= cell_2_9 8)))
 (let (($x2792 (= cell_2_9 7)))
 (let (($x1099 (= cell_2_9 6)))
 (let (($x3114 (= cell_2_9 5)))
 (let (($x681 (= cell_2_9 4)))
 (let (($x3216 (= cell_2_9 3)))
 (let (($x4034 (= cell_2_9 2)))
 (let (($x300 (= cell_2_9 1)))
 (or $x300 $x4034 $x3216 $x681 $x3114 $x1099 $x2792 $x2318 $x3818)))))))))))
(assert
 (let (($x990 (= cell_3_9 9)))
 (let (($x848 (= cell_3_9 8)))
 (let (($x3966 (= cell_3_9 7)))
 (let (($x736 (= cell_3_9 6)))
 (let (($x2485 (= cell_3_9 5)))
 (let (($x3817 (= cell_3_9 4)))
 (let (($x749 (= cell_3_9 3)))
 (let (($x1784 (= cell_3_9 2)))
 (let (($x1232 (= cell_3_9 1)))
 (or $x1232 $x1784 $x749 $x3817 $x2485 $x736 $x3966 $x848 $x990)))))))))))
(assert
 (let (($x1370 (= cell_4_9 1)))
 (or $x1370 (= cell_4_9 2) (= cell_4_9 3) (= cell_4_9 4) (= cell_4_9 5) (= cell_4_9 6) (= cell_4_9 7) (= cell_4_9 8) (= cell_4_9 9))))
(assert
 (let (($x3496 (= cell_5_9 2)))
 (let (($x1133 (= cell_5_9 1)))
 (or $x1133 $x3496 (= cell_5_9 3) (= cell_5_9 4) (= cell_5_9 5) (= cell_5_9 6) (= cell_5_9 7) (= cell_5_9 8) (= cell_5_9 9)))))
(assert
 (let (($x1102 (= cell_6_9 2)))
 (let (($x2337 (= cell_6_9 1)))
 (or $x2337 $x1102 (= cell_6_9 3) (= cell_6_9 4) (= cell_6_9 5) (= cell_6_9 6) (= cell_6_9 7) (= cell_6_9 8) (= cell_6_9 9)))))
(assert
 (let (($x2359 (= cell_7_9 9)))
 (let (($x3615 (= cell_7_9 8)))
 (let (($x2399 (= cell_7_9 7)))
 (let (($x952 (= cell_7_9 6)))
 (let (($x3071 (= cell_7_9 5)))
 (let (($x7041 (= cell_7_9 4)))
 (let (($x3768 (= cell_7_9 3)))
 (let (($x1620 (= cell_7_9 2)))
 (let (($x2827 (= cell_7_9 1)))
 (or $x2827 $x1620 $x3768 $x7041 $x3071 $x952 $x2399 $x3615 $x2359)))))))))))
(assert
 (let (($x1285 (= cell_8_9 2)))
 (let (($x1615 (= cell_8_9 1)))
 (or $x1615 $x1285 (= cell_8_9 3) (= cell_8_9 4) (= cell_8_9 5) (= cell_8_9 6) (= cell_8_9 7) (= cell_8_9 8) (= cell_8_9 9)))))
(assert
 (let (($x2933 (= cell_9_9 1)))
 (or $x2933 (= cell_9_9 2) (= cell_9_9 3) (= cell_9_9 4) (= cell_9_9 5) (= cell_9_9 6) (= cell_9_9 7) (= cell_9_9 8) (= cell_9_9 9))))
(assert
 (and (distinct cell_1_1 cell_1_2 cell_1_3 cell_1_4 cell_1_5 cell_1_6 cell_1_7 cell_1_8 cell_1_9) true))
(assert
 (and (distinct cell_2_1 cell_2_2 cell_2_3 cell_2_4 cell_2_5 cell_2_6 cell_2_7 cell_2_8 cell_2_9) true))
(assert
 (and (distinct cell_3_1 cell_3_2 cell_3_3 cell_3_4 cell_3_5 cell_3_6 cell_3_7 cell_3_8 cell_3_9) true))
(assert
 (and (distinct cell_4_1 cell_4_2 cell_4_3 cell_4_4 cell_4_5 cell_4_6 cell_4_7 cell_4_8 cell_4_9) true))
(assert
 (and (distinct cell_5_1 cell_5_2 cell_5_3 cell_5_4 cell_5_5 cell_5_6 cell_5_7 cell_5_8 cell_5_9) true))
(assert
 (and (distinct cell_6_1 cell_6_2 cell_6_3 cell_6_4 cell_6_5 cell_6_6 cell_6_7 cell_6_8 cell_6_9) true))
(assert
 (and (distinct cell_7_1 cell_7_2 cell_7_3 cell_7_4 cell_7_5 cell_7_6 cell_7_7 cell_7_8 cell_7_9) true))
(assert
 (and (distinct cell_8_1 cell_8_2 cell_8_3 cell_8_4 cell_8_5 cell_8_6 cell_8_7 cell_8_8 cell_8_9) true))
(assert
 (and (distinct cell_9_1 cell_9_2 cell_9_3 cell_9_4 cell_9_5 cell_9_6 cell_9_7 cell_9_8 cell_9_9) true))
(assert
 (and (distinct cell_1_1 cell_2_1 cell_3_1 cell_4_1 cell_5_1 cell_6_1 cell_7_1 cell_8_1 cell_9_1) true))
(assert
 (and (distinct cell_1_2 cell_2_2 cell_3_2 cell_4_2 cell_5_2 cell_6_2 cell_7_2 cell_8_2 cell_9_2) true))
(assert
 (and (distinct cell_1_3 cell_2_3 cell_3_3 cell_4_3 cell_5_3 cell_6_3 cell_7_3 cell_8_3 cell_9_3) true))
(assert
 (and (distinct cell_1_4 cell_2_4 cell_3_4 cell_4_4 cell_5_4 cell_6_4 cell_7_4 cell_8_4 cell_9_4) true))
(assert
 (and (distinct cell_1_5 cell_2_5 cell_3_5 cell_4_5 cell_5_5 cell_6_5 cell_7_5 cell_8_5 cell_9_5) true))
(assert
 (and (distinct cell_1_6 cell_2_6 cell_3_6 cell_4_6 cell_5_6 cell_6_6 cell_7_6 cell_8_6 cell_9_6) true))
(assert
 (and (distinct cell_1_7 cell_2_7 cell_3_7 cell_4_7 cell_5_7 cell_6_7 cell_7_7 cell_8_7 cell_9_7) true))
(assert
 (and (distinct cell_1_8 cell_2_8 cell_3_8 cell_4_8 cell_5_8 cell_6_8 cell_7_8 cell_8_8 cell_9_8) true))
(assert
 (and (distinct cell_1_9 cell_2_9 cell_3_9 cell_4_9 cell_5_9 cell_6_9 cell_7_9 cell_8_9 cell_9_9) true))
(assert
 (and (distinct cell_1_1 cell_1_2 cell_1_3 cell_2_1 cell_2_2 cell_2_3 cell_3_1 cell_3_2 cell_3_3) true))
(assert
 (and (distinct cell_1_4 cell_1_5 cell_1_6 cell_2_4 cell_2_5 cell_2_6 cell_3_4 cell_3_5 cell_3_6) true))
(assert
 (and (distinct cell_1_7 cell_1_8 cell_1_9 cell_2_7 cell_2_8 cell_2_9 cell_3_7 cell_3_8 cell_3_9) true))
(assert
 (and (distinct cell_4_1 cell_4_2 cell_4_3 cell_5_1 cell_5_2 cell_5_3 cell_6_1 cell_6_2 cell_6_3) true))
(assert
 (and (distinct cell_4_4 cell_4_5 cell_4_6 cell_5_4 cell_5_5 cell_5_6 cell_6_4 cell_6_5 cell_6_6) true))
(assert
 (and (distinct cell_4_7 cell_4_8 cell_4_9 cell_5_7 cell_5_8 cell_5_9 cell_6_7 cell_6_8 cell_6_9) true))
(assert
 (and (distinct cell_7_1 cell_7_2 cell_7_3 cell_8_1 cell_8_2 cell_8_3 cell_9_1 cell_9_2 cell_9_3) true))
(assert
 (and (distinct cell_7_4 cell_7_5 cell_7_6 cell_8_4 cell_8_5 cell_8_6 cell_9_4 cell_9_5 cell_9_6) true))
(assert
 (and (distinct cell_7_7 cell_7_8 cell_7_9 cell_8_7 cell_8_8 cell_8_9 cell_9_7 cell_9_8 cell_9_9) true))
(assert
 (let (($x3358 (and (distinct cell_5_9 cell_6_8 cell_7_7 cell_8_6) true)))
 (let (($x3324 (and (distinct cell_2_9 cell_3_8 cell_4_7 cell_5_6 cell_6_5 cell_7_4 cell_8_3 cell_9_2) true)))
 (let (($x975 (and (distinct cell_1_8 cell_2_7 cell_3_6 cell_4_5 cell_5_4 cell_6_3 cell_7_2 cell_8_1) true)))
 (let (($x1070 (and (distinct cell_1_5 cell_2_4 cell_3_3 cell_4_2) true)))
 (let (($x4049 (and (distinct cell_5_1 cell_6_2 cell_7_3 cell_8_4) true)))
 (let (($x1244 (and (distinct cell_2_1 cell_3_2 cell_4_3 cell_5_4 cell_6_5 cell_7_6 cell_8_7 cell_9_8) true)))
 (let (($x1709 (and (distinct cell_1_2 cell_2_3 cell_3_4 cell_4_5 cell_5_6 cell_6_7 cell_7_8 cell_8_9) true)))
 (let (($x3760 (and (distinct cell_1_5 cell_2_6 cell_3_7 cell_4_8) true)))
 (and $x3760 $x1709 $x1244 $x4049 $x1070 $x975 $x3324 $x3358))))))))))
(assert
 (= cell_7_9 2))
(check-sat)
